\Problem name: compact

Minimize
OBJROW: C
Subject To
ord(0,1):  - x(0,1) + x(0,2) >= 5
ord(0,2):  x(0,0) - x(0,2) >= 2
ord(1,1):  - x(1,1) + x(1,2) >= 9
ord(1,2):  x(1,0) - x(1,2) >= 9
ord(2,1):  - x(2,0) + x(2,1) >= 10
ord(2,2):  - x(2,1) + x(2,2) >= 3
triangle2(0,1,0):  y(0,1,0) + y(1,0,0) = 1
triangle2(0,1,1):  y(0,1,1) + y(1,0,1) = 1
triangle2(0,1,2):  y(0,1,2) + y(1,0,2) = 1
triangle2(0,2,0):  y(0,2,0) + y(2,0,0) = 1
triangle2(0,2,1):  y(0,2,1) + y(2,0,1) = 1
triangle2(0,2,2):  y(0,2,2) + y(2,0,2) = 1
triangle2(1,2,0):  y(1,2,0) + y(2,1,0) = 1
triangle2(1,2,1):  y(1,2,1) + y(2,1,1) = 1
triangle2(1,2,2):  y(1,2,2) + y(2,1,2) = 1
MCLinV(0,1,0):  x(0,0) - v(0,1,0) - x(1,0) = 8
MCLinV(1,0,0):  - x(0,0) - v(1,0,0) + x(1,0) = 4
MCLin1(0,1,0):  u(0,1,0) >= -0
MCLin2(0,1,0):  -45 y(1,0,0) - u(0,1,0) <= -0
MCLin3(0,1,0):  22 y(1,0,0) + v(0,1,0) - u(0,1,0) <= 22
MCLin4(0,1,0):  22 y(1,0,0) - u(0,1,0) >= -0
MCLin5(0,1,0):  -45 y(1,0,0) + v(0,1,0) - u(0,1,0) >= -45
MCLin6(1,0,0):  u(1,0,0) >= -0
MCLin7(1,0,0):  -34 y(0,1,0) - u(1,0,0) <= -0
MCLin8(1,0,0):  33 y(0,1,0) + v(1,0,0) - u(1,0,0) <= 33
MCLin9(1,0,0):  33 y(0,1,0) - u(1,0,0) >= -0
MCLin10(1,0,0):  -34 y(0,1,0) + v(1,0,0) - u(1,0,0) >= -34
MCLinV(0,1,1):  x(0,1) - v(0,1,1) - x(1,1) = 9
MCLinV(1,0,1):  - x(0,1) - v(1,0,1) + x(1,1) = 5
MCLin1(0,1,1):  u(0,1,1) >= -0
MCLin2(0,1,1):  -35 y(1,0,1) - u(0,1,1) <= -0
MCLin3(0,1,1):  32 y(1,0,1) + v(0,1,1) - u(0,1,1) <= 32
MCLin4(0,1,1):  32 y(1,0,1) - u(0,1,1) >= -0
MCLin5(0,1,1):  -35 y(1,0,1) + v(0,1,1) - u(0,1,1) >= -35
MCLin6(1,0,1):  u(1,0,1) >= -0
MCLin7(1,0,1):  -46 y(0,1,1) - u(1,0,1) <= -0
MCLin8(1,0,1):  21 y(0,1,1) + v(1,0,1) - u(1,0,1) <= 21
MCLin9(1,0,1):  21 y(0,1,1) - u(1,0,1) >= -0
MCLin10(1,0,1):  -46 y(0,1,1) + v(1,0,1) - u(1,0,1) >= -46
MCLinV(0,1,2):  x(0,2) - v(0,1,2) - x(1,2) = 9
MCLinV(1,0,2):  - x(0,2) - v(1,0,2) + x(1,2) = 2
MCLin1(0,1,2):  u(0,1,2) >= -0
MCLin2(0,1,2):  -39 y(1,0,2) - u(0,1,2) <= -0
MCLin3(0,1,2):  28 y(1,0,2) + v(0,1,2) - u(0,1,2) <= 28
MCLin4(0,1,2):  28 y(1,0,2) - u(0,1,2) >= -0
MCLin5(0,1,2):  -39 y(1,0,2) + v(0,1,2) - u(0,1,2) >= -39
MCLin6(1,0,2):  u(1,0,2) >= -0
MCLin7(1,0,2):  -39 y(0,1,2) - u(1,0,2) <= -0
MCLin8(1,0,2):  28 y(0,1,2) + v(1,0,2) - u(1,0,2) <= 28
MCLin9(1,0,2):  28 y(0,1,2) - u(1,0,2) >= -0
MCLin10(1,0,2):  -39 y(0,1,2) + v(1,0,2) - u(1,0,2) >= -39
MCLinV(0,2,0):  x(0,0) - v(0,2,0) - x(2,0) = 10
MCLinV(2,0,0):  - x(0,0) - v(2,0,0) + x(2,0) = 4
MCLin1(0,2,0):  u(0,2,0) >= -0
MCLin2(0,2,0):  -40 y(2,0,0) - u(0,2,0) <= -0
MCLin3(0,2,0):  38 y(2,0,0) + v(0,2,0) - u(0,2,0) <= 38
MCLin4(0,2,0):  38 y(2,0,0) - u(0,2,0) >= -0
MCLin5(0,2,0):  -40 y(2,0,0) + v(0,2,0) - u(0,2,0) >= -40
MCLin6(2,0,0):  u(2,0,0) >= -0
MCLin7(2,0,0):  -52 y(0,2,0) - u(2,0,0) <= -0
MCLin8(2,0,0):  26 y(0,2,0) + v(2,0,0) - u(2,0,0) <= 26
MCLin9(2,0,0):  26 y(0,2,0) - u(2,0,0) >= -0
MCLin10(2,0,0):  -52 y(0,2,0) + v(2,0,0) - u(2,0,0) >= -52
MCLinV(0,2,1):  x(0,1) - v(0,2,1) - x(2,1) = 3
MCLinV(2,0,1):  - x(0,1) - v(2,0,1) + x(2,1) = 5
MCLin1(0,2,1):  u(0,2,1) >= -0
MCLin2(0,2,1):  -50 y(2,0,1) - u(0,2,1) <= -0
MCLin3(0,2,1):  28 y(2,0,1) + v(0,2,1) - u(0,2,1) <= 28
MCLin4(0,2,1):  28 y(2,0,1) - u(0,2,1) >= -0
MCLin5(0,2,1):  -50 y(2,0,1) + v(0,2,1) - u(0,2,1) >= -50
MCLin6(2,0,1):  u(2,0,1) >= -0
MCLin7(2,0,1):  -36 y(0,2,1) - u(2,0,1) <= -0
MCLin8(2,0,1):  42 y(0,2,1) + v(2,0,1) - u(2,0,1) <= 42
MCLin9(2,0,1):  42 y(0,2,1) - u(2,0,1) >= -0
MCLin10(2,0,1):  -36 y(0,2,1) + v(2,0,1) - u(2,0,1) >= -36
MCLinV(0,2,2):  x(0,2) - v(0,2,2) - x(2,2) = 2
MCLinV(2,0,2):  - x(0,2) - v(2,0,2) + x(2,2) = 2
MCLin1(0,2,2):  u(0,2,2) >= -0
MCLin2(0,2,2):  -47 y(2,0,2) - u(0,2,2) <= -0
MCLin3(0,2,2):  31 y(2,0,2) + v(0,2,2) - u(0,2,2) <= 31
MCLin4(0,2,2):  31 y(2,0,2) - u(0,2,2) >= -0
MCLin5(0,2,2):  -47 y(2,0,2) + v(0,2,2) - u(0,2,2) >= -47
MCLin6(2,0,2):  u(2,0,2) >= -0
MCLin7(2,0,2):  -35 y(0,2,2) - u(2,0,2) <= -0
MCLin8(2,0,2):  43 y(0,2,2) + v(2,0,2) - u(2,0,2) <= 43
MCLin9(2,0,2):  43 y(0,2,2) - u(2,0,2) >= -0
MCLin10(2,0,2):  -35 y(0,2,2) + v(2,0,2) - u(2,0,2) >= -35
MCLinV(1,2,0):  x(1,0) - v(1,2,0) - x(2,0) = 10
MCLinV(2,1,0):  - x(1,0) - v(2,1,0) + x(2,0) = 8
MCLin1(1,2,0):  u(1,2,0) >= -0
MCLin2(1,2,0):  -29 y(2,1,0) - u(1,2,0) <= -0
MCLin3(1,2,0):  34 y(2,1,0) + v(1,2,0) - u(1,2,0) <= 34
MCLin4(1,2,0):  34 y(2,1,0) - u(1,2,0) >= -0
MCLin5(1,2,0):  -29 y(2,1,0) + v(1,2,0) - u(1,2,0) >= -29
MCLin6(2,1,0):  u(2,1,0) >= -0
MCLin7(2,1,0):  -52 y(1,2,0) - u(2,1,0) <= -0
MCLin8(2,1,0):  11 y(1,2,0) + v(2,1,0) - u(2,1,0) <= 11
MCLin9(2,1,0):  11 y(1,2,0) - u(2,1,0) >= -0
MCLin10(2,1,0):  -52 y(1,2,0) + v(2,1,0) - u(2,1,0) >= -52
MCLinV(1,2,1):  x(1,1) - v(1,2,1) - x(2,1) = 3
MCLinV(2,1,1):  - x(1,1) - v(2,1,1) + x(2,1) = 9
MCLin1(1,2,1):  u(1,2,1) >= -0
MCLin2(1,2,1):  -50 y(2,1,1) - u(1,2,1) <= -0
MCLin3(1,2,1):  13 y(2,1,1) + v(1,2,1) - u(1,2,1) <= 13
MCLin4(1,2,1):  13 y(2,1,1) - u(1,2,1) >= -0
MCLin5(1,2,1):  -50 y(2,1,1) + v(1,2,1) - u(1,2,1) >= -50
MCLin6(2,1,1):  u(2,1,1) >= -0
MCLin7(2,1,1):  -25 y(1,2,1) - u(2,1,1) <= -0
MCLin8(2,1,1):  38 y(1,2,1) + v(2,1,1) - u(2,1,1) <= 38
MCLin9(2,1,1):  38 y(1,2,1) - u(2,1,1) >= -0
MCLin10(2,1,1):  -25 y(1,2,1) + v(2,1,1) - u(2,1,1) >= -25
MCLinV(1,2,2):  x(1,2) - v(1,2,2) - x(2,2) = 2
MCLinV(2,1,2):  - x(1,2) - v(2,1,2) + x(2,2) = 9
MCLin1(1,2,2):  u(1,2,2) >= -0
MCLin2(1,2,2):  -43 y(2,1,2) - u(1,2,2) <= -0
MCLin3(1,2,2):  20 y(2,1,2) + v(1,2,2) - u(1,2,2) <= 20
MCLin4(1,2,2):  20 y(2,1,2) - u(1,2,2) >= -0
MCLin5(1,2,2):  -43 y(2,1,2) + v(1,2,2) - u(1,2,2) >= -43
MCLin6(2,1,2):  u(2,1,2) >= -0
MCLin7(2,1,2):  -31 y(1,2,2) - u(2,1,2) <= -0
MCLin8(2,1,2):  32 y(1,2,2) + v(2,1,2) - u(2,1,2) <= 32
MCLin9(2,1,2):  32 y(1,2,2) - u(2,1,2) >= -0
MCLin10(2,1,2):  -31 y(1,2,2) + v(2,1,2) - u(2,1,2) >= -31
makespan(0):  C - x(0,0) >= 4
makespan(1):  C - x(1,0) >= 8
makespan(2):  C - x(2,2) >= 2
Bounds
 0 <= C <= 52
 7 <= x(0,0) <= 48
 0 <= y(0,1,0) <= 1
 0 <= y(1,0,0) <= 1
 -45 <= v(0,1,0) <= 22
 -34 <= v(1,0,0) <= 33
 -520 <= u(0,1,0)
 -520 <= u(1,0,0)
 0 <= y(0,2,0) <= 1
 0 <= y(2,0,0) <= 1
 -40 <= v(0,2,0) <= 38
 -52 <= v(2,0,0) <= 26
 -520 <= u(0,2,0)
 -520 <= u(2,0,0)
 18 <= x(1,0) <= 44
 0 <= y(1,2,0) <= 1
 0 <= y(2,1,0) <= 1
 -29 <= v(1,2,0) <= 34
 -52 <= v(2,1,0) <= 11
 -520 <= u(1,2,0)
 -520 <= u(2,1,0)
 0 <= x(2,0) <= 37
 0 <= x(0,1) <= 41
 0 <= y(0,1,1) <= 1
 0 <= y(1,0,1) <= 1
 -35 <= v(0,1,1) <= 32
 -46 <= v(1,0,1) <= 21
 -520 <= u(0,1,1)
 -520 <= u(1,0,1)
 0 <= y(0,2,1) <= 1
 0 <= y(2,0,1) <= 1
 -50 <= v(0,2,1) <= 28
 -36 <= v(2,0,1) <= 42
 -520 <= u(0,2,1)
 -520 <= u(2,0,1)
 0 <= x(1,1) <= 26
 0 <= y(1,2,1) <= 1
 0 <= y(2,1,1) <= 1
 -50 <= v(1,2,1) <= 13
 -25 <= v(2,1,1) <= 38
 -520 <= u(1,2,1)
 -520 <= u(2,1,1)
 10 <= x(2,1) <= 47
 5 <= x(0,2) <= 46
 0 <= y(0,1,2) <= 1
 0 <= y(1,0,2) <= 1
 -39 <= v(0,1,2) <= 28
 -39 <= v(1,0,2) <= 28
 -520 <= u(0,1,2)
 -520 <= u(1,0,2)
 0 <= y(0,2,2) <= 1
 0 <= y(2,0,2) <= 1
 -47 <= v(0,2,2) <= 31
 -35 <= v(2,0,2) <= 43
 -520 <= u(0,2,2)
 -520 <= u(2,0,2)
 9 <= x(1,2) <= 35
 0 <= y(1,2,2) <= 1
 0 <= y(2,1,2) <= 1
 -43 <= v(1,2,2) <= 20
 -31 <= v(2,1,2) <= 32
 -520 <= u(1,2,2)
 -520 <= u(2,1,2)
 13 <= x(2,2) <= 50
Integers
C x(0,0) y(0,1,0) y(1,0,0) v(0,1,0) v(1,0,0) u(0,1,0) u(1,0,0) y(0,2,0) y(2,0,0) 
v(0,2,0) v(2,0,0) u(0,2,0) u(2,0,0) x(1,0) y(1,2,0) y(2,1,0) v(1,2,0) v(2,1,0) u(1,2,0) 
u(2,1,0) x(2,0) x(0,1) y(0,1,1) y(1,0,1) v(0,1,1) v(1,0,1) u(0,1,1) u(1,0,1) y(0,2,1) 
y(2,0,1) v(0,2,1) v(2,0,1) u(0,2,1) u(2,0,1) x(1,1) y(1,2,1) y(2,1,1) v(1,2,1) v(2,1,1) 
u(1,2,1) u(2,1,1) x(2,1) x(0,2) y(0,1,2) y(1,0,2) v(0,1,2) v(1,0,2) u(0,1,2) u(1,0,2) 
y(0,2,2) y(2,0,2) v(0,2,2) v(2,0,2) u(0,2,2) u(2,0,2) x(1,2) y(1,2,2) y(2,1,2) v(1,2,2) 
v(2,1,2) u(1,2,2) u(2,1,2) x(2,2) 
End
